;; produced by cvc4_16.drv ;;
(set-logic AUFBVFPDTNIRA)
(set-info :source |VC generated by SPARK 2014|)
(set-info :smt-lib-version 2.5)
(set-info :category industrial)
(set-info :status unknown)
;;; generated by SMT-LIB2 driver
;;; SMT-LIB2 driver: bit-vectors, common part
;;; SMT-LIB2: integer arithmetic
;;; SMT-LIB2: real arithmetic
(define-fun fp.isFinite32 ((x Float32)) Bool (not (or (fp.isInfinite x) (fp.isNaN x))))
(declare-datatypes () ((tuple0 (Tuple0))))
(declare-sort us_private 0)

(declare-fun private__bool_eq (us_private us_private) Bool)

(declare-const us_null_ext__ us_private)

(declare-sort us_type_of_heap 0)

(declare-datatypes ()
((us_type_of_heap__ref
 (mk___type_of_heap__ref (us_type_of_heap__content us_type_of_heap)))))
(declare-sort us_image 0)

(declare-datatypes () ((int__ref (mk_int__ref (int__content Int)))))
(declare-datatypes () ((bool__ref (mk_bool__ref (bool__content Bool)))))
(declare-datatypes () ((real__ref (mk_real__ref (real__content Real)))))
(declare-datatypes ()
((us_private__ref (mk___private__ref (us_private__content us_private)))))
(define-fun int__ref___projection ((a int__ref)) Int (int__content a))

(define-fun bool__ref___projection ((a bool__ref)) Bool (bool__content a))

(define-fun real__ref___projection ((a real__ref)) Real (real__content a))

(define-fun us_private__ref___projection ((a us_private__ref)) us_private
  (us_private__content a))

(declare-fun pow2 (Int) Int)

(define-fun is_plus_infinity ((x Float32)) Bool (and (fp.isInfinite  x)
                                                (fp.isPositive  x)))

(define-fun is_minus_infinity ((x Float32)) Bool (and (fp.isInfinite  x)
                                                 (fp.isNegative  x)))

(define-fun is_plus_zero ((x Float32)) Bool (and (fp.isZero      x)
                                            (fp.isPositive  x)))

(define-fun is_minus_zero ((x Float32)) Bool (and (fp.isZero      x)
                                             (fp.isNegative  x)))

(declare-fun of_int (RoundingMode Int) Float32)

(declare-fun to_int1 (RoundingMode Float32) Int)

(declare-const max_int Int)

(define-fun in_int_range ((i Int)) Bool (and (<= (- max_int) i)
                                        (<= i max_int)))

(define-fun in_safe_int_range ((i Int)) Bool (and (<= (- 16777216) i)
                                             (<= i 16777216)))

(define-fun same_sign ((x Float32)
  (y Float32)) Bool (or (and (fp.isPositive  x) (fp.isPositive  y))
                    (and (fp.isNegative  x) (fp.isNegative  y))))

(define-fun diff_sign ((x Float32)
  (y Float32)) Bool (or (and (fp.isPositive  x) (fp.isNegative  y))
                    (and (fp.isNegative  x) (fp.isPositive  y))))

(define-fun product_sign ((z Float32) (x Float32)
  (y Float32)) Bool (and (=> (same_sign x y) (fp.isPositive  z))
                    (=> (diff_sign x y) (fp.isNegative  z))))

(define-fun sqr ((x Real)) Real (* x x))

(declare-fun sqrt (Real) Real)

(define-fun same_sign_real ((x Float32)
  (r Real)) Bool (or (and (fp.isPositive  x) (< 0.0 r))
                 (and (fp.isNegative  x) (< r 0.0))))

(declare-fun is_int1 (Float32) Bool)

(declare-datatypes () ((t__ref (mk_t__ref (t__content Float32)))))
(declare-sort float1 0)

(define-fun in_range ((x Float32)) Bool (and (fp.isFinite32 x)
                                        (and
                                        (fp.leq (fp #b0 #b01111110 #b00000000000000000000000) x)
                                        (fp.leq x (fp #b0 #b01111110 #b11001100110011001100110)))))

(declare-fun user_eq (float1 float1) Bool)

(declare-fun attr__ATTRIBUTE_IMAGE (Float32) us_image)

(declare-fun attr__ATTRIBUTE_VALUE__pre_check (us_image) Bool)

(declare-fun attr__ATTRIBUTE_VALUE (us_image) Float32)

(declare-const dummy float1)

(declare-datatypes ()
((float1__ref (mk_float1__ref (float1__content float1)))))
(define-fun float1__ref___projection ((a float1__ref)) float1 (float1__content
                                                              a))

(define-fun dynamic_invariant ((temp___expr_171 Float32)
  (temp___is_init_168 Bool) (temp___skip_constant_169 Bool)
  (temp___do_toplevel_170 Bool)) Bool (=>
                                      (or (= temp___is_init_168 true)
                                      (fp.leq (fp #b0 #b01111110 #b00000000000000000000000) (fp #b0 #b01111110 #b11001100110011001100110)))
                                      (in_range temp___expr_171)))

(declare-sort float2 0)

(define-fun in_range1 ((x Float32)) Bool (and (fp.isFinite32 x)
                                         (and
                                         (fp.leq (fp #b0 #b00000000 #b00000000000000000000000) x)
                                         (fp.leq x (fp #b0 #b10000000 #b00001100110011001100110)))))

(declare-fun user_eq1 (float2 float2) Bool)

(declare-fun attr__ATTRIBUTE_IMAGE1 (Float32) us_image)

(declare-fun attr__ATTRIBUTE_VALUE__pre_check1 (us_image) Bool)

(declare-fun attr__ATTRIBUTE_VALUE1 (us_image) Float32)

(declare-const dummy1 float2)

(declare-datatypes ()
((float2__ref (mk_float2__ref (float2__content float2)))))
(define-fun float2__ref___projection ((a float2__ref)) float2 (float2__content
                                                              a))

(define-fun dynamic_invariant1 ((temp___expr_177 Float32)
  (temp___is_init_174 Bool) (temp___skip_constant_175 Bool)
  (temp___do_toplevel_176 Bool)) Bool (=>
                                      (or (= temp___is_init_174 true)
                                      (fp.leq (fp #b0 #b00000000 #b00000000000000000000000) (fp #b0 #b10000000 #b00001100110011001100110)))
                                      (in_range1 temp___expr_177)))

(declare-const attr__ATTRIBUTE_ADDRESS Int)

(declare-const attr__ATTRIBUTE_ADDRESS1 Int)

(declare-const attr__ATTRIBUTE_ADDRESS2 Int)

(assert
;; WP_parameter_def
 ;; File "fr.adb", line 8, characters 0-0
  (not true))
(check-sat)
(exit)
